
Gurobi 6.0.5 (linux64) logging started Sun Oct 22 17:22:25 2017


Gurobi 6.0.5 (linux64) logging started Sun Oct 22 17:22:46 2017


Gurobi 6.0.5 (linux64) logging started Sun Oct 22 17:25:13 2017


Gurobi 6.0.5 (linux64) logging started Sun Oct 22 17:25:38 2017


Gurobi 6.0.5 (linux64) logging started Sun Oct 22 17:28:10 2017


Gurobi 6.0.5 (linux64) logging started Sun Oct 22 17:28:38 2017


Gurobi 6.0.5 (linux64) logging started Sun Oct 22 17:31:34 2017


Gurobi 6.0.5 (linux64) logging started Sun Oct 22 17:31:57 2017


Gurobi 6.0.5 (linux64) logging started Sun Oct 22 17:35:33 2017


Gurobi 6.0.5 (linux64) logging started Sun Oct 22 17:35:53 2017


Gurobi 6.0.5 (linux64) logging started Sun Oct 22 17:40:23 2017


Gurobi 6.0.5 (linux64) logging started Sun Oct 22 17:40:43 2017


Gurobi 6.0.5 (linux64) logging started Sun Oct 22 17:46:03 2017


Gurobi 6.0.5 (linux64) logging started Sun Oct 22 17:46:29 2017


Gurobi 6.0.5 (linux64) logging started Sun Oct 22 17:52:39 2017


Gurobi 6.0.5 (linux64) logging started Sun Oct 22 17:53:04 2017


Gurobi 6.0.5 (linux64) logging started Sun Oct 22 18:00:00 2017


Gurobi 6.0.5 (linux64) logging started Sun Oct 22 18:00:31 2017

